NAME          
ROWS
 N  OBJ
 L  c3
 L  c4
 L  c5
 L  c6
 L  c7
 G  c1
 G  c2
COLUMNS
    ss[1]     c1        1
    ss[1]     OBJ       1000
    ss[2]     c2        1
    ss[2]     OBJ       1000
    s[1]      c3        1
    s[1]      OBJ       -1000
    s[2]      c4        1
    s[2]      OBJ       -1000
    s[3]      c5        1
    s[3]      OBJ       -1000
    s[4]      c6        1
    s[4]      OBJ       -1000
    s[5]      c7        1
    s[5]      OBJ       -1000
    MARKER    'MARKER'                 'INTORG'
    x[1]      c3        564
    x[1]      c4        69
    x[1]      c5        50
    x[1]      c6        564
    x[1]      c7        890
    x[1]      c1        556
    x[1]      c2        413
    x[1]      OBJ       -943
    x[2]      c3        573
    x[2]      c4        120
    x[2]      c5        196
    x[2]      c6        379
    x[2]      c7        113
    x[2]      c1        125
    x[2]      c2        794
    x[2]      OBJ       -746
    x[3]      c3        644
    x[3]      c4        707
    x[3]      c5        633
    x[3]      c6        11
    x[3]      c7        529
    x[3]      c1        736
    x[3]      c2        494
    x[3]      OBJ       -935
    x[4]      c3        578
    x[4]      c4        768
    x[4]      c5        827
    x[4]      c6        703
    x[4]      c7        561
    x[4]      c1        557
    x[4]      c2        821
    x[4]      OBJ       -609
    x[5]      c3        35
    x[5]      c4        617
    x[5]      c5        922
    x[5]      c6        236
    x[5]      c7        741
    x[5]      c1        301
    x[5]      c2        348
    x[5]      OBJ       -1075
    x[6]      c3        292
    x[6]      c4        344
    x[6]      c5        782
    x[6]      c6        624
    x[6]      c7        55
    x[6]      c1        6
    x[6]      c2        961
    x[6]      OBJ       -955
    x[7]      c3        982
    x[7]      c4        512
    x[7]      c5        434
    x[7]      c6        107
    x[7]      c7        816
    x[7]      c1        111
    x[7]      c2        63
    x[7]      OBJ       -1385
    x[8]      c3        294
    x[8]      c4        212
    x[8]      c5        701
    x[8]      c6        909
    x[8]      c7        259
    x[8]      c1        16
    x[8]      c2        962
    x[8]      OBJ       -941
    x[9]      c3        315
    x[9]      c4        763
    x[9]      c5        280
    x[9]      c6        335
    x[9]      c7        722
    x[9]      c1        704
    x[9]      c2        799
    x[9]      OBJ       -669
    x[10]     c3        809
    x[10]     c4        553
    x[10]     c5        81
    x[10]     c6        786
    x[10]     c7        134
    x[10]     c1        952
    x[10]     c2        242
    x[10]     OBJ       -881
    x[11]     c3        523
    x[11]     c4        141
    x[11]     c5        345
    x[11]     c6        690
    x[11]     c7        960
    x[11]     c1        408
    x[11]     c2        352
    x[11]     OBJ       -1180
    x[12]     c3        94
    x[12]     c4        463
    x[12]     c5        726
    x[12]     c6        595
    x[12]     c7        787
    x[12]     c1        492
    x[12]     c2        337
    x[12]     OBJ       -848
    x[13]     c3        663
    x[13]     c4        598
    x[13]     c5        793
    x[13]     c6        161
    x[13]     c7        58
    x[13]     c1        163
    x[13]     c2        111
    x[13]     OBJ       -1338
    x[14]     c3        780
    x[14]     c4        582
    x[14]     c5        76
    x[14]     c6        477
    x[14]     c7        952
    x[14]     c1        938
    x[14]     c2        559
    x[14]     OBJ       -758
    x[15]     c3        949
    x[15]     c4        691
    x[15]     c5        23
    x[15]     c6        127
    x[15]     c7        303
    x[15]     c1        315
    x[15]     c2        889
    x[15]     OBJ       -712
    x[16]     c3        36
    x[16]     c4        647
    x[16]     c5        732
    x[16]     c6        33
    x[16]     c7        567
    x[16]     c1        949
    x[16]     c2        595
    x[16]     OBJ       -556
    x[17]     c3        166
    x[17]     c4        772
    x[17]     c5        648
    x[17]     c6        387
    x[17]     c7        377
    x[17]     c1        670
    x[17]     c2        914
    x[17]     OBJ       -364
    x[18]     c3        798
    x[18]     c4        404
    x[18]     c5        493
    x[18]     c6        319
    x[18]     c7        642
    x[18]     c1        1000
    x[18]     c2        576
    x[18]     OBJ       -362
    x[19]     c3        640
    x[19]     c4        238
    x[19]     c5        752
    x[19]     c6        663
    x[19]     c7        99
    x[19]     c1        457
    x[19]     c2        312
    x[19]     OBJ       -780
    x[20]     c3        526
    x[20]     c4        295
    x[20]     c5        532
    x[20]     c6        627
    x[20]     c7        110
    x[20]     c1        816
    x[20]     c2        323
    x[20]     OBJ       -457
    x[21]     c3        176
    x[21]     c4        375
    x[21]     c5        883
    x[21]     c6        311
    x[21]     c7        761
    x[21]     c1        357
    x[21]     c2        153
    x[21]     OBJ       -993
    x[22]     c3        745
    x[22]     c4        302
    x[22]     c5        475
    x[22]     c6        205
    x[22]     c7        521
    x[22]     c1        495
    x[22]     c2        888
    x[22]     OBJ       -687
    x[23]     c3        816
    x[23]     c4        842
    x[23]     c5        583
    x[23]     c6        133
    x[23]     c7        374
    x[23]     c1        916
    x[23]     c2        287
    x[23]     OBJ       -582
    x[24]     c3        748
    x[24]     c4        771
    x[24]     c5        111
    x[24]     c6        998
    x[24]     c7        12
    x[24]     c1        852
    x[24]     c2        627
    x[24]     OBJ       -800
    x[25]     c3        238
    x[25]     c4        338
    x[25]     c5        594
    x[25]     c6        827
    x[25]     c7        927
    x[25]     c1        614
    x[25]     c2        888
    x[25]     OBJ       -808
    x[26]     c3        369
    x[26]     c4        363
    x[26]     c5        687
    x[26]     c6        216
    x[26]     c7        939
    x[26]     c1        161
    x[26]     c2        634
    x[26]     OBJ       -1206
    x[27]     c3        542
    x[27]     c4        496
    x[27]     c5        134
    x[27]     c6        201
    x[27]     c7        208
    x[27]     c1        60
    x[27]     c2        424
    x[27]     OBJ       -903
    x[28]     c3        855
    x[28]     c4        99
    x[28]     c5        713
    x[28]     c6        237
    x[28]     c7        902
    x[28]     c1        382
    x[28]     c2        365
    x[28]     OBJ       -926
    x[29]     c3        95
    x[29]     c4        915
    x[29]     c5        290
    x[29]     c6        341
    x[29]     c7        732
    x[29]     c1        373
    x[29]     c2        374
    x[29]     OBJ       -970
    x[30]     c3        191
    x[30]     c4        41
    x[30]     c5        442
    x[30]     c6        645
    x[30]     c7        213
    x[30]     c1        570
    x[30]     c2        85
    x[30]     OBJ       -758
    x[31]     c3        121
    x[31]     c4        102
    x[31]     c5        115
    x[31]     c6        578
    x[31]     c7        680
    x[31]     c1        182
    x[31]     c2        650
    x[31]     OBJ       -754
    x[32]     c3        510
    x[32]     c4        799
    x[32]     c5        491
    x[32]     c6        536
    x[32]     c7        437
    x[32]     c1        934
    x[32]     c2        265
    x[32]     OBJ       -661
    x[33]     c3        58
    x[33]     c4        190
    x[33]     c5        462
    x[33]     c6        264
    x[33]     c7        387
    x[33]     c1        129
    x[33]     c2        711
    x[33]     OBJ       -453
    x[34]     c3        633
    x[34]     c4        413
    x[34]     c5        797
    x[34]     c6        511
    x[34]     c7        616
    x[34]     c1        542
    x[34]     c2        204
    x[34]     OBJ       -1304
    x[35]     c3        478
    x[35]     c4        362
    x[35]     c5        481
    x[35]     c6        171
    x[35]     c7        8
    x[35]     c1        767
    x[35]     c2        816
    x[35]     OBJ       -351
    x[36]     c3        24
    x[36]     c4        422
    x[36]     c5        667
    x[36]     c6        977
    x[36]     c7        155
    x[36]     c1        964
    x[36]     c2        595
    x[36]     OBJ       -369
    x[37]     c3        352
    x[37]     c4        747
    x[37]     c5        456
    x[37]     c6        658
    x[37]     c7        325
    x[37]     c1        896
    x[37]     c2        111
    x[37]     OBJ       -848
    x[38]     c3        75
    x[38]     c4        290
    x[38]     c5        818
    x[38]     c6        781
    x[38]     c7        34
    x[38]     c1        350
    x[38]     c2        707
    x[38]     OBJ       -919
    x[39]     c3        480
    x[39]     c4        485
    x[39]     c5        419
    x[39]     c6        14
    x[39]     c7        466
    x[39]     c1        178
    x[39]     c2        774
    x[39]     OBJ       -811
    x[40]     c3        448
    x[40]     c4        775
    x[40]     c5        817
    x[40]     c6        142
    x[40]     c7        134
    x[40]     c1        557
    x[40]     c2        138
    x[40]     OBJ       -1008
    x[41]     c3        516
    x[41]     c4        403
    x[41]     c5        387
    x[41]     c6        934
    x[41]     c7        494
    x[41]     c1        975
    x[41]     c2        687
    x[41]     OBJ       -407
    x[42]     c3        900
    x[42]     c4        429
    x[42]     c5        30
    x[42]     c6        691
    x[42]     c7        206
    x[42]     c1        70
    x[42]     c2        131
    x[42]     OBJ       -1002
    x[43]     c3        439
    x[43]     c4        759
    x[43]     c5        897
    x[43]     c6        396
    x[43]     c7        454
    x[43]     c1        226
    x[43]     c2        279
    x[43]     OBJ       -1259
    x[44]     c3        331
    x[44]     c4        676
    x[44]     c5        73
    x[44]     c6        109
    x[44]     c7        55
    x[44]     c1        356
    x[44]     c2        775
    x[44]     OBJ       -379
    x[45]     c3        217
    x[45]     c4        605
    x[45]     c5        832
    x[45]     c6        424
    x[45]     c7        181
    x[45]     c1        404
    x[45]     c2        191
    x[45]     OBJ       -1204
    x[46]     c3        600
    x[46]     c4        474
    x[46]     c5        99
    x[46]     c6        154
    x[46]     c7        875
    x[46]     c1        79
    x[46]     c2        217
    x[46]     OBJ       -908
    x[47]     c3        656
    x[47]     c4        670
    x[47]     c5        312
    x[47]     c6        400
    x[47]     c7        905
    x[47]     c1        833
    x[47]     c2        181
    x[47]     OBJ       -907
    x[48]     c3        347
    x[48]     c4        170
    x[48]     c5        926
    x[48]     c6        36
    x[48]     c7        650
    x[48]     c1        616
    x[48]     c2        750
    x[48]     OBJ       -560
    x[49]     c3        978
    x[49]     c4        211
    x[49]     c5        522
    x[49]     c6        428
    x[49]     c7        919
    x[49]     c1        575
    x[49]     c2        890
    x[49]     OBJ       -682
    x[50]     c3        337
    x[50]     c4        440
    x[50]     c5        391
    x[50]     c6        942
    x[50]     c7        261
    x[50]     c1        987
    x[50]     c2        776
    x[50]     OBJ       -529
    x[51]     c3        559
    x[51]     c4        750
    x[51]     c5        595
    x[51]     c6        990
    x[51]     c7        797
    x[51]     c1        340
    x[51]     c2        484
    x[51]     OBJ       -1068
    x[52]     c3        649
    x[52]     c4        721
    x[52]     c5        325
    x[52]     c6        251
    x[52]     c7        403
    x[52]     c1        794
    x[52]     c2        655
    x[52]     OBJ       -456
    x[53]     c3        583
    x[53]     c4        203
    x[53]     c5        762
    x[53]     c6        541
    x[53]     c7        776
    x[53]     c1        321
    x[53]     c2        662
    x[53]     OBJ       -797
    x[54]     c3        628
    x[54]     c4        285
    x[54]     c5        830
    x[54]     c6        411
    x[54]     c7        53
    x[54]     c1        337
    x[54]     c2        662
    x[54]     OBJ       -1037
    x[55]     c3        839
    x[55]     c4        7
    x[55]     c5        340
    x[55]     c6        999
    x[55]     c7        267
    x[55]     c1        580
    x[55]     c2        995
    x[55]     OBJ       -343
    x[56]     c3        397
    x[56]     c4        467
    x[56]     c5        653
    x[56]     c6        32
    x[56]     c7        100
    x[56]     c1        920
    x[56]     c2        248
    x[56]     OBJ       -635
    x[57]     c3        285
    x[57]     c4        814
    x[57]     c5        569
    x[57]     c6        790
    x[57]     c7        622
    x[57]     c1        425
    x[57]     c2        718
    x[57]     OBJ       -969
    x[58]     c3        156
    x[58]     c4        346
    x[58]     c5        616
    x[58]     c6        919
    x[58]     c7        113
    x[58]     c1        170
    x[58]     c2        321
    x[58]     OBJ       -1243
    x[59]     c3        45
    x[59]     c4        498
    x[59]     c5        504
    x[59]     c6        65
    x[59]     c7        161
    x[59]     c1        955
    x[59]     c2        533
    x[59]     OBJ       -375
    x[60]     c3        461
    x[60]     c4        214
    x[60]     c5        631
    x[60]     c6        544
    x[60]     c7        761
    x[60]     c1        581
    x[60]     c2        391
    x[60]     OBJ       -822
    x[61]     c3        2
    x[61]     c4        379
    x[61]     c5        729
    x[61]     c6        930
    x[61]     c7        110
    x[61]     c1        739
    x[61]     c2        81
    x[61]     OBJ       -791
    x[62]     c3        866
    x[62]     c4        148
    x[62]     c5        154
    x[62]     c6        221
    x[62]     c7        364
    x[62]     c1        622
    x[62]     c2        253
    x[62]     OBJ       -863
    x[63]     c3        832
    x[63]     c4        809
    x[63]     c5        638
    x[63]     c6        585
    x[63]     c7        755
    x[63]     c1        473
    x[63]     c2        879
    x[63]     OBJ       -684
    x[64]     c3        295
    x[64]     c4        873
    x[64]     c5        74
    x[64]     c6        702
    x[64]     c7        176
    x[64]     c1        789
    x[64]     c2        540
    x[64]     OBJ       -400
    x[65]     c3        747
    x[65]     c4        937
    x[65]     c5        746
    x[65]     c6        893
    x[65]     c7        267
    x[65]     c1        946
    x[65]     c2        959
    x[65]     OBJ       -676
    x[66]     c3        391
    x[66]     c4        607
    x[66]     c5        541
    x[66]     c6        495
    x[66]     c7        388
    x[66]     c1        499
    x[66]     c2        118
    x[66]     OBJ       -1148
    x[67]     c3        617
    x[67]     c4        345
    x[67]     c5        998
    x[67]     c6        568
    x[67]     c7        715
    x[67]     c1        666
    x[67]     c2        989
    x[67]     OBJ       -724
    x[68]     c3        118
    x[68]     c4        313
    x[68]     c5        483
    x[68]     c6        877
    x[68]     c7        753
    x[68]     c1        546
    x[68]     c2        781
    x[68]     OBJ       -765
    x[69]     c3        310
    x[69]     c4        982
    x[69]     c5        510
    x[69]     c6        559
    x[69]     c7        690
    x[69]     c1        630
    x[69]     c2        678
    x[69]     OBJ       -935
    x[70]     c3        159
    x[70]     c4        523
    x[70]     c5        857
    x[70]     c6        472
    x[70]     c7        662
    x[70]     c1        997
    x[70]     c2        787
    x[70]     OBJ       -518
    x[71]     c3        602
    x[71]     c4        768
    x[71]     c5        849
    x[71]     c6        686
    x[71]     c7        632
    x[71]     c1        462
    x[71]     c2        424
    x[71]     OBJ       -960
    x[72]     c3        422
    x[72]     c4        945
    x[72]     c5        655
    x[72]     c6        893
    x[72]     c7        570
    x[72]     c1        750
    x[72]     c2        721
    x[72]     OBJ       -926
    x[73]     c3        414
    x[73]     c4        131
    x[73]     c5        196
    x[73]     c6        35
    x[73]     c7        991
    x[73]     c1        841
    x[73]     c2        623
    x[73]     OBJ       -533
    x[74]     c3        190
    x[74]     c4        148
    x[74]     c5        80
    x[74]     c6        573
    x[74]     c7        105
    x[74]     c1        795
    x[74]     c2        833
    x[74]     OBJ       -251
    x[75]     c3        936
    x[75]     c4        814
    x[75]     c5        220
    x[75]     c6        560
    x[75]     c7        831
    x[75]     c1        2
    x[75]     c2        986
    x[75]     OBJ       -1142
    x[76]     c3        384
    x[76]     c4        203
    x[76]     c5        560
    x[76]     c6        328
    x[76]     c7        951
    x[76]     c1        522
    x[76]     c2        141
    x[76]     OBJ       -785
    x[77]     c3        170
    x[77]     c4        595
    x[77]     c5        301
    x[77]     c6        363
    x[77]     c7        101
    x[77]     c1        778
    x[77]     c2        66
    x[77]     OBJ       -693
    x[78]     c3        791
    x[78]     c4        107
    x[78]     c5        954
    x[78]     c6        994
    x[78]     c7        644
    x[78]     c1        42
    x[78]     c2        983
    x[78]     OBJ       -820
    x[79]     c3        576
    x[79]     c4        62
    x[79]     c5        556
    x[79]     c6        971
    x[79]     c7        788
    x[79]     c1        714
    x[79]     c2        449
    x[79]     OBJ       -977
    x[80]     c3        524
    x[80]     c4        105
    x[80]     c5        1000
    x[80]     c6        930
    x[80]     c7        91
    x[80]     c1        645
    x[80]     c2        654
    x[80]     OBJ       -561
    x[81]     c3        181
    x[81]     c4        519
    x[81]     c5        919
    x[81]     c6        129
    x[81]     c7        87
    x[81]     c1        855
    x[81]     c2        458
    x[81]     OBJ       -471
    x[82]     c3        561
    x[82]     c4        86
    x[82]     c5        92
    x[82]     c6        556
    x[82]     c7        537
    x[82]     c1        396
    x[82]     c2        675
    x[82]     OBJ       -697
    x[83]     c3        931
    x[83]     c4        497
    x[83]     c5        16
    x[83]     c6        174
    x[83]     c7        223
    x[83]     c1        768
    x[83]     c2        515
    x[83]     OBJ       -697
    x[84]     c3        338
    x[84]     c4        930
    x[84]     c5        617
    x[84]     c6        498
    x[84]     c7        817
    x[84]     c1        392
    x[84]     c2        718
    x[84]     OBJ       -764
    x[85]     c3        739
    x[85]     c4        460
    x[85]     c5        909
    x[85]     c6        782
    x[85]     c7        865
    x[85]     c1        141
    x[85]     c2        486
    x[85]     OBJ       -1042
    x[86]     c3        47
    x[86]     c4        319
    x[86]     c5        703
    x[86]     c6        258
    x[86]     c7        854
    x[86]     c1        544
    x[86]     c2        881
    x[86]     OBJ       -721
    x[87]     c3        697
    x[87]     c4        199
    x[87]     c5        313
    x[87]     c6        393
    x[87]     c7        375
    x[87]     c1        847
    x[87]     c2        726
    x[87]     OBJ       -274
    x[88]     c3        998
    x[88]     c4        918
    x[88]     c5        881
    x[88]     c6        706
    x[88]     c7        833
    x[88]     c1        263
    x[88]     c2        386
    x[88]     OBJ       -1599
    x[89]     c3        792
    x[89]     c4        143
    x[89]     c5        67
    x[89]     c6        411
    x[89]     c7        358
    x[89]     c1        325
    x[89]     c2        796
    x[89]     OBJ       -562
    x[90]     c3        779
    x[90]     c4        367
    x[90]     c5        242
    x[90]     c6        817
    x[90]     c7        960
    x[90]     c1        227
    x[90]     c2        229
    x[90]     OBJ       -1370
    x[91]     c3        727
    x[91]     c4        628
    x[91]     c5        835
    x[91]     c6        928
    x[91]     c7        752
    x[91]     c1        765
    x[91]     c2        398
    x[91]     OBJ       -1085
    x[92]     c3        190
    x[92]     c4        39
    x[92]     c5        358
    x[92]     c6        224
    x[92]     c7        331
    x[92]     c1        128
    x[92]     c2        335
    x[92]     OBJ       -1017
    x[93]     c3        320
    x[93]     c4        5
    x[93]     c5        386
    x[93]     c6        953
    x[93]     c7        752
    x[93]     c1        10
    x[93]     c2        624
    x[93]     OBJ       -831
    x[94]     c3        787
    x[94]     c4        81
    x[94]     c5        911
    x[94]     c6        908
    x[94]     c7        966
    x[94]     c1        973
    x[94]     c2        283
    x[94]     OBJ       -737
    x[95]     c3        600
    x[95]     c4        843
    x[95]     c5        192
    x[95]     c6        221
    x[95]     c7        787
    x[95]     c1        162
    x[95]     c2        182
    x[95]     OBJ       -1150
    x[96]     c3        77
    x[96]     c4        37
    x[96]     c5        789
    x[96]     c6        698
    x[96]     c7        165
    x[96]     c1        743
    x[96]     c2        589
    x[96]     OBJ       -510
    x[97]     c3        526
    x[97]     c4        437
    x[97]     c5        751
    x[97]     c6        664
    x[97]     c7        601
    x[97]     c1        208
    x[97]     c2        153
    x[97]     OBJ       -1251
    x[98]     c3        407
    x[98]     c4        918
    x[98]     c5        909
    x[98]     c6        216
    x[98]     c7        638
    x[98]     c1        223
    x[98]     c2        945
    x[98]     OBJ       -706
    x[99]     c3        620
    x[99]     c4        174
    x[99]     c5        305
    x[99]     c6        417
    x[99]     c7        833
    x[99]     c1        981
    x[99]     c2        272
    x[99]     OBJ       -672
    x[100]    c3        462
    x[100]    c4        824
    x[100]    c5        130
    x[100]    c6        260
    x[100]    c7        741
    x[100]    c1        143
    x[100]    c2        849
    x[100]    OBJ       -1002
RHS
    rhs       c3        24132
    rhs       c4        22992
    rhs       c5        26091
    rhs       c6        25192
    rhs       c7        25309
    rhs       c1        2632
    rhs       c2        2677
RANGES
BOUNDS
 LO bounds    ss[1]     0
 PL bounds    ss[1]
 LO bounds    ss[2]     0
 PL bounds    ss[2]
 MI bounds    s[1]
 UP bounds    s[1]      0
 MI bounds    s[2]
 UP bounds    s[2]      0
 MI bounds    s[3]
 UP bounds    s[3]      0
 MI bounds    s[4]
 UP bounds    s[4]      0
 MI bounds    s[5]
 UP bounds    s[5]      0
 BV bounds    x[1]
 BV bounds    x[2]
 BV bounds    x[3]
 BV bounds    x[4]
 BV bounds    x[5]
 BV bounds    x[6]
 BV bounds    x[7]
 BV bounds    x[8]
 BV bounds    x[9]
 BV bounds    x[10]
 BV bounds    x[11]
 BV bounds    x[12]
 BV bounds    x[13]
 BV bounds    x[14]
 BV bounds    x[15]
 BV bounds    x[16]
 BV bounds    x[17]
 BV bounds    x[18]
 BV bounds    x[19]
 BV bounds    x[20]
 BV bounds    x[21]
 BV bounds    x[22]
 BV bounds    x[23]
 BV bounds    x[24]
 BV bounds    x[25]
 BV bounds    x[26]
 BV bounds    x[27]
 BV bounds    x[28]
 BV bounds    x[29]
 BV bounds    x[30]
 BV bounds    x[31]
 BV bounds    x[32]
 BV bounds    x[33]
 BV bounds    x[34]
 BV bounds    x[35]
 BV bounds    x[36]
 BV bounds    x[37]
 BV bounds    x[38]
 BV bounds    x[39]
 BV bounds    x[40]
 BV bounds    x[41]
 BV bounds    x[42]
 BV bounds    x[43]
 BV bounds    x[44]
 BV bounds    x[45]
 BV bounds    x[46]
 BV bounds    x[47]
 BV bounds    x[48]
 BV bounds    x[49]
 BV bounds    x[50]
 BV bounds    x[51]
 BV bounds    x[52]
 BV bounds    x[53]
 BV bounds    x[54]
 BV bounds    x[55]
 BV bounds    x[56]
 BV bounds    x[57]
 BV bounds    x[58]
 BV bounds    x[59]
 BV bounds    x[60]
 BV bounds    x[61]
 BV bounds    x[62]
 BV bounds    x[63]
 BV bounds    x[64]
 BV bounds    x[65]
 BV bounds    x[66]
 BV bounds    x[67]
 BV bounds    x[68]
 BV bounds    x[69]
 BV bounds    x[70]
 BV bounds    x[71]
 BV bounds    x[72]
 BV bounds    x[73]
 BV bounds    x[74]
 BV bounds    x[75]
 BV bounds    x[76]
 BV bounds    x[77]
 BV bounds    x[78]
 BV bounds    x[79]
 BV bounds    x[80]
 BV bounds    x[81]
 BV bounds    x[82]
 BV bounds    x[83]
 BV bounds    x[84]
 BV bounds    x[85]
 BV bounds    x[86]
 BV bounds    x[87]
 BV bounds    x[88]
 BV bounds    x[89]
 BV bounds    x[90]
 BV bounds    x[91]
 BV bounds    x[92]
 BV bounds    x[93]
 BV bounds    x[94]
 BV bounds    x[95]
 BV bounds    x[96]
 BV bounds    x[97]
 BV bounds    x[98]
 BV bounds    x[99]
 BV bounds    x[100]
ENDATA
